5
65
97
57
80
10
60
50
49
62
56
20
15
23
64
28
36
95
59
98
51
69
1
74
21
7
76
12
32
58
63
40
25
54
45
99
17
84
35
88
83
47
3
46
26
79
16
73
52
8
31
9
66
30
93
55
6
70
37
77
85
96
11
2
4
82
92
27
67
87
41
75
13
91
43
86
19
94
18
24
29
100
78
53
34
39
22
33
38
68
72
89
81
71
61
14
44
48
90
42
5
